; benchmark generated from python API
(set-info :status unknown)
(declare-fun x_days () Int)
(declare-fun y_days () Int)
(assert
 (>= x_days (- 36584)))
(assert
 (<= x_days 36829))
(assert
 (>= y_days (- 36584)))
(assert
 (<= y_days 36829))
(assert
 (= x_days 7275))
(assert
 (= y_days 6910))
(assert
 (let ((?x429 (+ x_days 730179)))
 (let ((?x239 (mod ?x429 146097)))
 (let ((?x490 (div ?x239 36524)))
 (let ((?x601 (ite (<= 4 ?x490) 3 ?x490)))
 (let ((?x248 (- ?x239 (* ?x601 36524))))
 (let ((?x328 (mod ?x248 1461)))
 (let ((?x694 (div ?x328 365)))
 (let ((?x2474 (ite (<= 4 ?x694) 3 ?x694)))
 (let ((?x65 (+ (+ (* (div ?x429 146097) 400) (* ?x601 100)) (* (div ?x248 1461) 4))))
 (let ((?x488 (+ (+ ?x65 ?x2474) 1)))
 (let (($x408 (or (and (= (mod ?x488 4) 0) (and (distinct (mod ?x488 100) 0) true)) (= (mod ?x488 400) 0))))
 (let ((?x188 (- ?x328 (* ?x2474 365))))
 (let ((?x550 (ite $x408 31 31)))
 (let (($x244 (>= ?x188 ?x550)))
 (let ((?x810 (ite $x244 (+ (- ?x188 ?x550) 1) (+ (- ?x188 (ite $x408 0 0)) 1))))
 (let ((?x203 (ite $x408 60 59)))
 (let (($x289 (>= ?x188 ?x203)))
 (let ((?x728 (ite $x408 91 90)))
 (let (($x332 (>= ?x188 ?x728)))
 (let ((?x433 (ite $x332 (+ (- ?x188 ?x728) 1) (ite $x289 (+ (- ?x188 ?x203) 1) ?x810))))
 (let ((?x250 (ite $x408 121 120)))
 (let (($x451 (>= ?x188 ?x250)))
 (let ((?x526 (ite $x408 152 151)))
 (let (($x403 (>= ?x188 ?x526)))
 (let ((?x134 (ite $x403 (+ (- ?x188 ?x526) 1) (ite $x451 (+ (- ?x188 ?x250) 1) ?x433))))
 (let ((?x461 (ite $x408 182 181)))
 (let (($x515 (>= ?x188 ?x461)))
 (let ((?x319 (ite $x408 213 212)))
 (let (($x1254 (>= ?x188 ?x319)))
 (let ((?x2594 (ite $x1254 (+ (- ?x188 ?x319) 1) (ite $x515 (+ (- ?x188 ?x461) 1) ?x134))))
 (let ((?x370 (ite $x408 244 243)))
 (let (($x474 (>= ?x188 ?x370)))
 (let ((?x70 (ite $x408 274 273)))
 (let (($x11 (>= ?x188 ?x70)))
 (let ((?x531 (ite $x11 (+ (- ?x188 ?x70) 1) (ite $x474 (+ (- ?x188 ?x370) 1) ?x2594))))
 (let ((?x538 (ite $x408 305 304)))
 (let (($x149 (>= ?x188 ?x538)))
 (let ((?x482 (ite $x408 335 334)))
 (let (($x205 (>= ?x188 ?x482)))
 (let ((?x2464 (ite $x205 (+ (- ?x188 ?x482) 1) (ite $x149 (+ (- ?x188 ?x538) 1) ?x531))))
 (let ((?x143 (+ (* 0 12) 1)))
 (let ((?x481 (ite $x451 5 (ite $x332 4 (ite $x289 3 (ite $x244 2 1))))))
 (let ((?x41 (ite $x474 9 (ite $x1254 8 (ite $x515 7 (ite $x403 6 ?x481))))))
 (let ((?x485 (- (+ (ite $x205 12 (ite $x149 11 (ite $x11 10 ?x41))) ?x143) 1)))
 (let ((?x579 (+ (mod ?x485 12) 1)))
 (let ((?x89 (ite (or (= ?x579 4) (= ?x579 6) (= ?x579 9) (= ?x579 11)) 30 31)))
 (let (($x738 (and (= (mod (+ ?x488 (+ 0 (div ?x485 12))) 4) 0) (and (distinct (mod (+ ?x488 (+ 0 (div ?x485 12))) 100) 0) true))))
 (let (($x530 (or $x738 (= (mod (+ ?x488 (+ 0 (div ?x485 12))) 400) 0))))
 (let ((?x737 (ite (= ?x579 2) (ite $x530 29 28) ?x89)))
 (let ((?x735 (ite (> 1 ?x2464) 1 (ite (> ?x2464 ?x737) ?x737 ?x2464))))
 (let ((?x1015 (ite (> 1 ?x735) 1 (ite (> ?x735 ?x737) ?x737 ?x735))))
 (let ((?x421 (ite (= 2 ?x579) (ite $x530 31 31) (ite (= 1 ?x579) (ite $x530 0 0) 0))))
 (let ((?x508 (ite (= 4 ?x579) (ite $x530 91 90) (ite (= 3 ?x579) (ite $x530 60 59) ?x421))))
 (let ((?x12 (ite (= 6 ?x579) (ite $x530 152 151) (ite (= 5 ?x579) (ite $x530 121 120) ?x508))))
 (let ((?x535 (ite (= 8 ?x579) (ite $x530 213 212) (ite (= 7 ?x579) (ite $x530 182 181) ?x12))))
 (let ((?x569 (ite (= 10 ?x579) (ite $x530 274 273) (ite (= 9 ?x579) (ite $x530 244 243) ?x535))))
 (let ((?x628 (ite (= 12 ?x579) (ite $x530 335 334) (ite (= 11 ?x579) (ite $x530 305 304) ?x569))))
 (let ((?x350 (+ (* 365 (- (+ ?x488 (+ 0 (div ?x485 12))) 1)) (div (- (+ ?x488 (+ 0 (div ?x485 12))) 1) 4))))
 (let ((?x343 (+ (- ?x350 (div (- (+ ?x488 (+ 0 (div ?x485 12))) 1) 100)) (div (- (+ ?x488 (+ 0 (div ?x485 12))) 1) 400))))
 (let ((?x174 (+ (+ (- (+ (+ ?x343 ?x628) (- ?x1015 1)) 730179) 0) 730179)))
 (let ((?x687 (mod ?x174 146097)))
 (let ((?x46 (div ?x687 36524)))
 (let ((?x2429 (ite (<= 4 ?x46) 3 ?x46)))
 (let ((?x466 (- ?x687 (* ?x2429 36524))))
 (let ((?x2483 (mod ?x466 1461)))
 (let ((?x354 (div ?x2483 365)))
 (let ((?x299 (ite (<= 4 ?x354) 3 ?x354)))
 (let ((?x585 (+ (+ (* (div ?x174 146097) 400) (* ?x2429 100)) (* (div ?x466 1461) 4))))
 (let ((?x410 (+ (+ ?x585 ?x299) 1)))
 (let (($x779 (or (and (= (mod ?x410 4) 0) (and (distinct (mod ?x410 100) 0) true)) (= (mod ?x410 400) 0))))
 (let ((?x532 (- ?x2483 (* ?x299 365))))
 (let ((?x59 (ite $x779 31 31)))
 (let (($x586 (>= ?x532 ?x59)))
 (let ((?x16 (ite $x586 (+ (- ?x532 ?x59) 1) (+ (- ?x532 (ite $x779 0 0)) 1))))
 (let ((?x458 (ite $x779 60 59)))
 (let (($x1237 (>= ?x532 ?x458)))
 (let ((?x138 (ite $x779 91 90)))
 (let (($x571 (>= ?x532 ?x138)))
 (let ((?x132 (ite $x571 (+ (- ?x532 ?x138) 1) (ite $x1237 (+ (- ?x532 ?x458) 1) ?x16))))
 (let ((?x423 (ite $x779 121 120)))
 (let (($x198 (>= ?x532 ?x423)))
 (let ((?x2335 (ite $x779 152 151)))
 (let (($x190 (>= ?x532 ?x2335)))
 (let ((?x770 (ite $x190 (+ (- ?x532 ?x2335) 1) (ite $x198 (+ (- ?x532 ?x423) 1) ?x132))))
 (let ((?x714 (ite $x779 182 181)))
 (let (($x748 (>= ?x532 ?x714)))
 (let ((?x7 (ite $x779 213 212)))
 (let (($x666 (>= ?x532 ?x7)))
 (let ((?x500 (ite $x666 (+ (- ?x532 ?x7) 1) (ite $x748 (+ (- ?x532 ?x714) 1) ?x770))))
 (let ((?x469 (ite $x779 244 243)))
 (let (($x680 (>= ?x532 ?x469)))
 (let ((?x435 (ite $x779 274 273)))
 (let (($x353 (>= ?x532 ?x435)))
 (let ((?x2760 (ite $x353 (+ (- ?x532 ?x435) 1) (ite $x680 (+ (- ?x532 ?x469) 1) ?x500))))
 (let ((?x552 (ite $x779 305 304)))
 (let (($x363 (>= ?x532 ?x552)))
 (let ((?x598 (ite $x779 335 334)))
 (let (($x697 (>= ?x532 ?x598)))
 (let ((?x597 (ite $x697 (+ (- ?x532 ?x598) 1) (ite $x363 (+ (- ?x532 ?x552) 1) ?x2760))))
 (let (($x424 (= 0 0)))
 (let (($x274 (= (mod (ite $x424 (+ ?x488 (+ 0 (div ?x485 12))) ?x410) 400) 0)))
 (let (($x325 (and (distinct (mod (ite $x424 (+ ?x488 (+ 0 (div ?x485 12))) ?x410) 100) 0) true)))
 (let (($x318 (= (mod (ite $x424 (+ ?x488 (+ 0 (div ?x485 12))) ?x410) 4) 0)))
 (let (($x406 (or (and $x318 $x325) $x274)))
 (let ((?x225 (ite $x198 5 (ite $x571 4 (ite $x1237 3 (ite $x586 2 1))))))
 (let ((?x229 (ite $x680 9 (ite $x666 8 (ite $x748 7 (ite $x190 6 ?x225))))))
 (let ((?x24 (ite $x424 ?x579 (ite $x697 12 (ite $x363 11 (ite $x353 10 ?x229))))))
 (let ((?x228 (ite (= 2 ?x24) (ite $x406 31 31) (ite (= 1 ?x24) (ite $x406 0 0) 0))))
 (let ((?x2628 (ite (= 4 ?x24) (ite $x406 91 90) (ite (= 3 ?x24) (ite $x406 60 59) ?x228))))
 (let ((?x194 (ite (= 6 ?x24) (ite $x406 152 151) (ite (= 5 ?x24) (ite $x406 121 120) ?x2628))))
 (let ((?x898 (ite (= 8 ?x24) (ite $x406 213 212) (ite (= 7 ?x24) (ite $x406 182 181) ?x194))))
 (let ((?x275 (ite (= 10 ?x24) (ite $x406 274 273) (ite (= 9 ?x24) (ite $x406 244 243) ?x898))))
 (let ((?x524 (ite (= 12 ?x24) (ite $x406 335 334) (ite (= 11 ?x24) (ite $x406 305 304) ?x275))))
 (let ((?x702 (+ ?x488 (+ 0 (div ?x485 12)))))
 (let ((?x459 (ite $x424 ?x702 ?x410)))
 (let ((?x705 (- ?x459 1)))
 (let ((?x558 (+ (- (+ (* 365 ?x705) (div ?x705 4)) (div ?x705 100)) (div ?x705 400))))
 (= (- (+ (+ ?x558 ?x524) (- (ite $x424 ?x1015 ?x597) 1)) 730179) 7304)))))))))))))))))))))))))))))))))))))))))))))))))))))))))))))))))))))))))))))))))))))))))))))))))))))))))))))))))))))))
(assert
 (let ((?x32 (+ y_days 730179)))
(let ((?x752 (mod ?x32 146097)))
(let ((?x617 (div ?x752 36524)))
(let ((?x903 (ite (<= 4 ?x617) 3 ?x617)))
(let ((?x1984 (- ?x752 (* ?x903 36524))))
(let ((?x1034 (mod ?x1984 1461)))
(let ((?x602 (div ?x1034 365)))
(let ((?x317 (ite (<= 4 ?x602) 3 ?x602)))
(let ((?x2981 (+ (+ (* (div ?x32 146097) 400) (* ?x903 100)) (* (div ?x1984 1461) 4))))
(let ((?x1278 (+ (+ ?x2981 ?x317) 1)))
(let (($x2123 (or (and (= (mod ?x1278 4) 0) (and (distinct (mod ?x1278 100) 0) true)) (= (mod ?x1278 400) 0))))
(let ((?x1091 (- ?x1034 (* ?x317 365))))
(let ((?x2071 (ite $x2123 31 31)))
(let (($x241 (>= ?x1091 ?x2071)))
(let ((?x1457 (ite $x241 (+ (- ?x1091 ?x2071) 1) (+ (- ?x1091 (ite $x2123 0 0)) 1))))
(let ((?x781 (ite $x2123 60 59)))
(let (($x1133 (>= ?x1091 ?x781)))
(let ((?x2037 (ite $x2123 91 90)))
(let (($x308 (>= ?x1091 ?x2037)))
(let ((?x3106 (ite $x308 (+ (- ?x1091 ?x2037) 1) (ite $x1133 (+ (- ?x1091 ?x781) 1) ?x1457))))
(let ((?x3164 (ite $x2123 121 120)))
(let (($x491 (>= ?x1091 ?x3164)))
(let ((?x161 (ite $x2123 152 151)))
(let (($x2230 (>= ?x1091 ?x161)))
(let ((?x3420 (ite $x2230 (+ (- ?x1091 ?x161) 1) (ite $x491 (+ (- ?x1091 ?x3164) 1) ?x3106))))
(let ((?x3474 (ite $x2123 182 181)))
(let (($x838 (>= ?x1091 ?x3474)))
(let ((?x251 (ite $x2123 213 212)))
(let (($x870 (>= ?x1091 ?x251)))
(let ((?x278 (ite $x870 (+ (- ?x1091 ?x251) 1) (ite $x838 (+ (- ?x1091 ?x3474) 1) ?x3420))))
(let ((?x1712 (ite $x2123 244 243)))
(let (($x42 (>= ?x1091 ?x1712)))
(let ((?x1295 (ite $x2123 274 273)))
(let (($x643 (>= ?x1091 ?x1295)))
(let ((?x2936 (ite $x643 (+ (- ?x1091 ?x1295) 1) (ite $x42 (+ (- ?x1091 ?x1712) 1) ?x278))))
(let ((?x2113 (ite $x2123 305 304)))
(let (($x399 (>= ?x1091 ?x2113)))
(let ((?x472 (ite $x2123 335 334)))
(let (($x2902 (>= ?x1091 ?x472)))
(let ((?x1137 (ite $x2902 (+ (- ?x1091 ?x472) 1) (ite $x399 (+ (- ?x1091 ?x2113) 1) ?x2936))))
(let ((?x143 (+ (* 0 12) 1)))
(let ((?x2321 (ite $x491 5 (ite $x308 4 (ite $x1133 3 (ite $x241 2 1))))))
(let ((?x1721 (ite $x42 9 (ite $x870 8 (ite $x838 7 (ite $x2230 6 ?x2321))))))
(let ((?x2666 (- (+ (ite $x2902 12 (ite $x399 11 (ite $x643 10 ?x1721))) ?x143) 1)))
(let ((?x2163 (+ (mod ?x2666 12) 1)))
(let ((?x256 (ite (or (= ?x2163 4) (= ?x2163 6) (= ?x2163 9) (= ?x2163 11)) 30 31)))
(let (($x1651 (and (= (mod (+ ?x1278 (+ 0 (div ?x2666 12))) 4) 0) (and (distinct (mod (+ ?x1278 (+ 0 (div ?x2666 12))) 100) 0) true))))
(let (($x287 (or $x1651 (= (mod (+ ?x1278 (+ 0 (div ?x2666 12))) 400) 0))))
(let ((?x238 (ite (= ?x2163 2) (ite $x287 29 28) ?x256)))
(let ((?x2496 (ite (> 1 ?x1137) 1 (ite (> ?x1137 ?x238) ?x238 ?x1137))))
(let ((?x117 (ite (> 1 ?x2496) 1 (ite (> ?x2496 ?x238) ?x238 ?x2496))))
(let ((?x2089 (ite (= 2 ?x2163) (ite $x287 31 31) (ite (= 1 ?x2163) (ite $x287 0 0) 0))))
(let ((?x284 (ite (= 4 ?x2163) (ite $x287 91 90) (ite (= 3 ?x2163) (ite $x287 60 59) ?x2089))))
(let ((?x2172 (ite (= 6 ?x2163) (ite $x287 152 151) (ite (= 5 ?x2163) (ite $x287 121 120) ?x284))))
(let ((?x338 (ite (= 8 ?x2163) (ite $x287 213 212) (ite (= 7 ?x2163) (ite $x287 182 181) ?x2172))))
(let ((?x2332 (ite (= 10 ?x2163) (ite $x287 274 273) (ite (= 9 ?x2163) (ite $x287 244 243) ?x338))))
(let ((?x107 (ite (= 12 ?x2163) (ite $x287 335 334) (ite (= 11 ?x2163) (ite $x287 305 304) ?x2332))))
(let ((?x219 (+ (* 365 (- (+ ?x1278 (+ 0 (div ?x2666 12))) 1)) (div (- (+ ?x1278 (+ 0 (div ?x2666 12))) 1) 4))))
(let ((?x2374 (+ (- ?x219 (div (- (+ ?x1278 (+ 0 (div ?x2666 12))) 1) 100)) (div (- (+ ?x1278 (+ 0 (div ?x2666 12))) 1) 400))))
(let ((?x529 (+ (+ (- (+ (+ ?x2374 ?x107) (- ?x117 1)) 730179) 0) 730179)))
(let ((?x1582 (mod ?x529 146097)))
(let ((?x2417 (div ?x1582 36524)))
(let ((?x2404 (ite (<= 4 ?x2417) 3 ?x2417)))
(let ((?x1265 (- ?x1582 (* ?x2404 36524))))
(let ((?x2769 (mod ?x1265 1461)))
(let ((?x2334 (div ?x2769 365)))
(let ((?x393 (ite (<= 4 ?x2334) 3 ?x2334)))
(let ((?x20 (+ (+ (* (div ?x529 146097) 400) (* ?x2404 100)) (* (div ?x1265 1461) 4))))
(let ((?x2720 (+ (+ ?x20 ?x393) 1)))
(let (($x365 (or (and (= (mod ?x2720 4) 0) (and (distinct (mod ?x2720 100) 0) true)) (= (mod ?x2720 400) 0))))
(let ((?x2320 (- ?x2769 (* ?x393 365))))
(let ((?x1008 (ite $x365 31 31)))
(let (($x71 (>= ?x2320 ?x1008)))
(let ((?x303 (ite $x71 (+ (- ?x2320 ?x1008) 1) (+ (- ?x2320 (ite $x365 0 0)) 1))))
(let ((?x3373 (ite $x365 60 59)))
(let (($x201 (>= ?x2320 ?x3373)))
(let ((?x2253 (ite $x365 91 90)))
(let (($x3467 (>= ?x2320 ?x2253)))
(let ((?x1101 (ite $x3467 (+ (- ?x2320 ?x2253) 1) (ite $x201 (+ (- ?x2320 ?x3373) 1) ?x303))))
(let ((?x999 (ite $x365 121 120)))
(let (($x1267 (>= ?x2320 ?x999)))
(let ((?x113 (ite $x365 152 151)))
(let (($x334 (>= ?x2320 ?x113)))
(let ((?x3372 (ite $x334 (+ (- ?x2320 ?x113) 1) (ite $x1267 (+ (- ?x2320 ?x999) 1) ?x1101))))
(let ((?x288 (ite $x365 182 181)))
(let (($x548 (>= ?x2320 ?x288)))
(let ((?x51 (ite $x365 213 212)))
(let (($x698 (>= ?x2320 ?x51)))
(let ((?x1713 (ite $x698 (+ (- ?x2320 ?x51) 1) (ite $x548 (+ (- ?x2320 ?x288) 1) ?x3372))))
(let ((?x1124 (ite $x365 244 243)))
(let (($x94 (>= ?x2320 ?x1124)))
(let ((?x1322 (ite $x365 274 273)))
(let (($x686 (>= ?x2320 ?x1322)))
(let ((?x35 (ite $x686 (+ (- ?x2320 ?x1322) 1) (ite $x94 (+ (- ?x2320 ?x1124) 1) ?x1713))))
(let ((?x3119 (ite $x365 305 304)))
(let (($x888 (>= ?x2320 ?x3119)))
(let ((?x3117 (ite $x365 335 334)))
(let (($x309 (>= ?x2320 ?x3117)))
(let ((?x2512 (ite $x309 (+ (- ?x2320 ?x3117) 1) (ite $x888 (+ (- ?x2320 ?x3119) 1) ?x35))))
(let (($x424 (= 0 0)))
(let (($x295 (= (mod (ite $x424 (+ ?x1278 (+ 0 (div ?x2666 12))) ?x2720) 400) 0)))
(let (($x418 (and (distinct (mod (ite $x424 (+ ?x1278 (+ 0 (div ?x2666 12))) ?x2720) 100) 0) true)))
(let (($x75 (= (mod (ite $x424 (+ ?x1278 (+ 0 (div ?x2666 12))) ?x2720) 4) 0)))
(let (($x261 (or (and $x75 $x418) $x295)))
(let ((?x2635 (ite $x1267 5 (ite $x3467 4 (ite $x201 3 (ite $x71 2 1))))))
(let ((?x2524 (ite $x94 9 (ite $x698 8 (ite $x548 7 (ite $x334 6 ?x2635))))))
(let ((?x2438 (ite $x424 ?x2163 (ite $x309 12 (ite $x888 11 (ite $x686 10 ?x2524))))))
(let ((?x17 (ite (= 2 ?x2438) (ite $x261 31 31) (ite (= 1 ?x2438) (ite $x261 0 0) 0))))
(let ((?x137 (ite (= 4 ?x2438) (ite $x261 91 90) (ite (= 3 ?x2438) (ite $x261 60 59) ?x17))))
(let ((?x1976 (ite (= 6 ?x2438) (ite $x261 152 151) (ite (= 5 ?x2438) (ite $x261 121 120) ?x137))))
(let ((?x590 (ite (= 8 ?x2438) (ite $x261 213 212) (ite (= 7 ?x2438) (ite $x261 182 181) ?x1976))))
(let ((?x1771 (ite (= 10 ?x2438) (ite $x261 274 273) (ite (= 9 ?x2438) (ite $x261 244 243) ?x590))))
(let ((?x1731 (ite (= 12 ?x2438) (ite $x261 335 334) (ite (= 11 ?x2438) (ite $x261 305 304) ?x1771))))
(let ((?x2164 (+ ?x1278 (+ 0 (div ?x2666 12)))))
(let ((?x846 (ite $x424 ?x2164 ?x2720)))
(let ((?x676 (- ?x846 1)))
(let ((?x457 (+ (- (+ (* 365 ?x676) (div ?x676 4)) (div ?x676 100)) (div ?x676 400))))
(= (- (+ (+ ?x457 ?x1731) (- (ite $x424 ?x117 ?x2512) 1)) 730179) 6938)))))))))))))))))))))))))))))))))))))))))))))))))))))))))))))))))))))))))))))))))))))))))))))))))))))))))))))))))))))))
(check-sat)
